1074.05 0
0 40 43 45 48 51 50 49 47 46 44 41 42 39 38 37 95 0
0 52 54 57 59 65 61 62 64 66 63 60 56 58 55 53 107 0
0 87 92 93 96 94 97 115 110 116 100 103 104 99 101 102 106 105 120 0
0 119 81 2 1 3 4 11 10 5 6 83 113 84 85 86 111 88 0
0 17 16 19 25 22 24 27 33 30 31 34 36 29 35 32 28 26 23 20 21 109 0
0 67 69 70 71 74 75 72 78 80 79 77 76 73 68 98 0
0 89 91 90 114 18 118 108 8 12 13 14 15 9 7 117 112 82 0
